149
1 2 3 4 5 6 7 8 14 15 17 18 19 23 24 25 28 31 35 37 40 51 53 57 58 66 74 77 83 84 85 88 90 93 97 101 115 124 125 129 130 148 151 162 169 175 177 179 193 196 201 203 208 223 229 233 236 245 246 251 255 264 266 267 294 301 309 313 319 335 343 365 381 383 389 390 395 398 418 421 422 423 426 427 428 429 430 438 451 452 460 464 474 480 483 492 506 507 538 543 549 554 559 564 566 570 572 578 582 614 616 631 676 684 688 692 694 715 718 724 733 744 771 787 791 793 795 797 809 833 852 873 885 896 907 923 933 944 953 969 983 1021 1040 1100 1113 1114 1131 1144 1160
0.15,149
